\Generated by Cardinal Operations

Maximize
   1479.64 x_('B','A')12:25_f + 470.28 x_('B','A')12:25_l 
   + 1484.6 x_('C','B')7:40_f + 450.8 x_('C','B')7:40_l 
   + 1462.12 x_('B','A')18:50_f + 447.25 x_('B','A')18:50_l 
Subject To
 capacity_constraint_('B','A')12:25: 1.2 x_('B','A')12:25_f 
   + x_('B','A')12:25_l <= 187
 balance_constraint_('B','A')12:25: 3.7 x_('B','A')12:25_0 
   + 0.9 x_('B','A')12:25_f + 0.9 x_('B','A')12:25_l <= 127.15
 scale_constraint_('B','A')12:25_f: 3.079 x_('B','A')12:25_0 
   - 2 x_('B','A')12:25_f >= 0
 scale_constraint_('B','A')12:25_l: 1.652 x_('B','A')12:25_0 
   - 2 x_('B','A')12:25_l >= 0
 capacity_constraint_('C','B')7:40: 1.2 x_('C','B')7:40_f 
   + x_('C','B')7:40_l <= 187
 balance_constraint_('C','B')7:40: 1.72 x_('C','B')7:40_0 
   + 0.97 x_('C','B')7:40_f + 0.97 x_('C','B')7:40_l <= 26.89
 scale_constraint_('C','B')7:40_f: 2.16 x_('C','B')7:40_0 
   - 1.2 x_('C','B')7:40_f >= 0
 scale_constraint_('C','B')7:40_l: 1.127 x_('C','B')7:40_0 
   - 1.2 x_('C','B')7:40_l >= 0
 capacity_constraint_('B','A')18:50: 1.2 x_('B','A')18:50_f 
   + x_('B','A')18:50_l <= 187
 balance_constraint_('B','A')18:50: 3.7 x_('B','A')18:50_0 
   + 0.9 x_('B','A')18:50_f + 0.9 x_('B','A')18:50_l <= 178.65
 scale_constraint_('B','A')18:50_f: 2.411 x_('B','A')18:50_0 
   - 2 x_('B','A')18:50_f >= 0
 scale_constraint_('B','A')18:50_l: 1.293 x_('B','A')18:50_0 
   - 2 x_('B','A')18:50_l >= 0
END

